
n_res = 6;
rcap = [74, 74, 73, 67, 1535, 1546];
rtype = [1, 1, 1, 1, 2, 2];
n_tasks = 100;
modes =  [{1, 2, 3}, {4, 5, 6}, {7, 8, 9}, {10, 11, 12}, {13, 14, 15}, {16, 17, 18}, {19, 20, 21}, {22, 23, 24}, {25, 26, 27}, {28, 29, 30}, {31, 32, 33}, {34, 35, 36}, {37, 38, 39}, {40, 41, 42}, {43, 44, 45}, {46, 47, 48}, {49, 50, 51}, {52, 53, 54}, {55, 56, 57}, {58, 59, 60}, {61, 62, 63}, {64, 65, 66}, {67, 68, 69}, {70, 71, 72}, {73, 74, 75}, {76, 77, 78}, {79, 80, 81}, {82, 83, 84}, {85, 86, 87}, {88, 89, 90}, {91, 92, 93}, {94, 95, 96}, {97, 98, 99}, {100, 101, 102}, {103, 104, 105}, {106, 107, 108}, {109, 110, 111}, {112, 113, 114}, {115, 116, 117}, {118, 119, 120}, {121, 122, 123}, {124, 125, 126}, {127, 128, 129}, {130, 131, 132}, {133, 134, 135}, {136, 137, 138}, {139, 140, 141}, {142, 143, 144}, {145, 146, 147}, {148, 149, 150}, {151, 152, 153}, {154, 155, 156}, {157, 158, 159}, {160, 161, 162}, {163, 164, 165}, {166, 167, 168}, {169, 170, 171}, {172, 173, 174}, {175, 176, 177}, {178, 179, 180}, {181, 182, 183}, {184, 185, 186}, {187, 188, 189}, {190, 191, 192}, {193, 194, 195}, {196, 197, 198}, {199, 200, 201}, {202, 203, 204}, {205, 206, 207}, {208, 209, 210}, {211, 212, 213}, {214, 215, 216}, {217, 218, 219}, {220, 221, 222}, {223, 224, 225}, {226, 227, 228}, {229, 230, 231}, {232, 233, 234}, {235, 236, 237}, {238, 239, 240}, {241, 242, 243}, {244, 245, 246}, {247, 248, 249}, {250, 251, 252}, {253, 254, 255}, {256, 257, 258}, {259, 260, 261}, {262, 263, 264}, {265, 266, 267}, {268, 269, 270}, {271, 272, 273}, {274, 275, 276}, {277, 278, 279}, {280, 281, 282}, {283, 284, 285}, {286, 287, 288}, {289, 290, 291}, {292, 293, 294}, {295, 296, 297}, {298, 299, 300}];
succ =  [{13, 12, 11, 9, 6}, {17, 14, 12, 11, 6}, {17, 12, 5}, {20, 11, 7}, {29, 28, 22, 21, 20, 19, 18, 14}, {40, 32, 25, 23, 22, 20, 19, 18, 16}, {24, 22, 21, 16, 14}, {24, 14, 12}, {32, 25, 23, 21, 19, 18, 16}, {32, 28, 22, 19, 15}, {34, 29, 28, 23, 22, 18}, {40, 38, 31, 29, 28, 27, 21, 19}, {40, 34, 32, 23, 18}, {40, 36, 32, 30, 27, 26, 25, 23}, {40, 29, 23, 18}, {50, 42, 38, 37, 36, 34, 31, 29, 28, 27}, {42, 40, 34, 29, 26, 23}, {42, 31, 30, 27, 26, 24}, {50, 46, 42, 37, 34, 30, 26}, {46, 42, 38, 37, 30, 26}, {50, 43, 42, 36, 34, 30}, {51, 50, 49, 39, 38, 35, 33, 31}, {51, 50, 46, 45, 41, 39, 38, 37, 35}, {50, 45, 41, 38, 36, 35}, {48, 42, 34, 31}, {51, 49, 45, 43, 39, 35, 33}, {51, 49, 45, 43, 39, 33}, {51, 46, 45, 43, 35}, {43, 30}, {53, 49, 45, 35}, {55, 54, 46, 45, 44, 43}, {53, 48, 45, 43, 41}, {62, 58, 55, 53, 48, 41}, {62, 51, 41, 39}, {62, 58, 55, 54, 48, 47, 44}, {62, 57, 56, 52, 51, 49, 46}, {57, 56, 53, 49, 48, 47}, {65, 55, 54, 53, 43}, {54, 53, 47, 44}, {59, 58, 54, 45}, {54, 47, 44}, {65, 63, 56, 53, 47}, {73, 64, 63, 62, 60, 59, 58, 57, 52}, {73, 65, 64, 63, 60, 57, 56, 52}, {65, 57, 47}, {73, 72, 67, 65, 64, 63, 60, 53}, {73, 69, 64, 60, 52}, {75, 74, 73, 72, 67, 66, 65, 64, 59}, {66, 61, 59, 54}, {74, 73, 72, 70, 69, 68, 62, 61}, {83, 75, 73, 70, 63, 58}, {74, 72, 68, 66, 61}, {79, 76, 75, 74, 59}, {83, 74, 73, 70, 69, 63}, {83, 79, 72, 69, 68, 64}, {79, 76, 74, 59}, {100, 84, 83, 81, 78, 76, 70, 68}, {89, 76, 74, 71, 69, 67}, {83, 81, 70, 69, 68}, {100, 84, 83, 81, 79, 76, 71, 70}, {78, 76, 75, 67}, {71, 66}, {89, 84, 81, 79, 78, 76, 71}, {100, 81, 78, 76, 71, 70}, {98, 95, 89, 88, 86, 84, 81, 80, 77, 76}, {100, 99, 88, 83, 81, 80, 79, 78, 76}, {100, 99, 97, 95, 88, 87, 86, 85, 84, 82, 81}, {97, 87, 71}, {100, 98, 96, 93, 86, 84, 78, 77}, {98, 97, 96, 95, 89, 87, 86, 77}, {96, 95, 88, 86, 82, 80, 77}, {99, 91, 88, 86, 85, 81, 78}, {99, 98, 97, 96, 95, 88, 87, 86, 85, 80}, {100, 98, 95, 92, 88, 86, 77}, {97, 95, 89, 86, 80, 77}, {97, 96, 94, 93, 91, 87, 85}, {99, 94, 91, 85}, {97, 95, 94, 87}, {96, 93, 91, 90}, {92, 91, 90}, {96, 94, 92}, {98, 91, 90}, {98, 91, 90}, {92, 91}, {90}, {90}, {92}, {93}, {93}, {}, {}, {}, {}, {}, {}, {}, {}, {}, {}, {}];
n_opt = 300;
dur = [9, 14, 21, 9, 21, 23, 6, 19, 30, 4, 18, 27, 3, 7, 19, 1, 19, 24, 6, 8, 14, 5, 12, 25, 23, 25, 30, 4, 16, 25, 3, 6, 15, 20, 22, 26, 5, 18, 26, 7, 11, 22, 2, 4, 24, 3, 16, 30, 10, 28, 30, 15, 18, 25, 8, 11, 29, 11, 12, 30, 8, 20, 25, 3, 7, 29, 3, 20, 21, 7, 26, 27, 4, 5, 13, 11, 14, 18, 6, 7, 8, 10, 12, 16, 12, 21, 29, 2, 6, 24, 11, 15, 23, 5, 16, 20, 5, 26, 29, 4, 17, 18, 8, 28, 29, 6, 13, 22, 2, 18, 27, 15, 18, 24, 4, 5, 9, 17, 20, 23, 5, 7, 21, 9, 12, 21, 2, 11, 27, 9, 10, 13, 7, 11, 30, 11, 17, 28, 2, 4, 28, 17, 20, 22, 12, 17, 30, 10, 18, 24, 5, 14, 22, 5, 21, 22, 8, 20, 26, 3, 12, 21, 10, 20, 22, 1, 2, 21, 21, 22, 28, 5, 21, 29, 5, 6, 24, 5, 24, 25, 13, 20, 25, 12, 13, 15, 7, 19, 20, 5, 6, 14, 8, 16, 25, 1, 2, 11, 4, 22, 27, 4, 21, 22, 5, 20, 26, 3, 26, 28, 11, 19, 30, 7, 12, 30, 8, 20, 30, 9, 13, 14, 19, 23, 29, 20, 26, 29, 16, 20, 26, 8, 19, 27, 15, 16, 22, 8, 15, 20, 6, 12, 13, 6, 9, 24, 2, 4, 17, 5, 16, 24, 12, 16, 20, 6, 9, 11, 1, 3, 12, 12, 21, 22, 5, 15, 18, 5, 11, 14, 9, 10, 15, 11, 13, 28, 5, 10, 14, 8, 13, 14, 4, 17, 25, 22, 23, 29, 10, 15, 19, 12, 17, 27, 12, 13, 15, 3, 6, 22];
rreq = [|24, 24, 23, 16, 16, 16, 25, 23, 21, 16, 10, 7, 27, 24, 19, 22, 15, 15, 27, 15, 7, 17, 16, 13, 11, 10, 4, 18, 16, 14, 22, 13, 1, 7, 7, 5, 17, 16, 13, 15, 11, 9, 17, 11, 6, 13, 9, 4, 13, 10, 9, 24, 9, 6, 3, 2, 1, 27, 23, 20, 16, 9, 3, 21, 16, 14, 19, 19, 19, 24, 23, 22, 6, 5, 4, 22, 20, 18, 12, 12, 12, 23, 22, 21, 19, 12, 10, 14, 11, 10, 22, 18, 10, 23, 19, 7, 7, 5, 4, 19, 19, 19, 20, 14, 3, 22, 19, 19, 23, 17, 17, 11, 11, 11, 18, 18, 15, 26, 25, 24, 18, 15, 11, 9, 6, 4, 25, 25, 21, 18, 11, 6, 16, 12, 11, 20, 19, 17, 13, 9, 9, 19, 14, 9, 25, 19, 19, 13, 8, 6, 12, 11, 8, 6, 5, 4, 19, 19, 18, 19, 13, 9, 24, 17, 12, 16, 14, 10, 21, 19, 16, 28, 28, 26, 15, 11, 8, 11, 10, 4, 19, 19, 18, 22, 20, 10, 21, 15, 11, 20, 19, 17, 14, 7, 4, 18, 18, 16, 17, 11, 7, 22, 20, 20, 17, 17, 12, 23, 22, 22, 25, 16, 15, 10, 9, 9, 20, 20, 16, 7, 5, 3, 29, 25, 20, 18, 14, 4, 8, 7, 7, 11, 8, 4, 22, 21, 20, 13, 11, 8, 23, 18, 15, 22, 18, 14, 24, 13, 1, 25, 22, 17, 24, 17, 7, 20, 19, 19, 18, 12, 10, 15, 13, 7, 27, 27, 27, 20, 20, 20, 22, 22, 18, 16, 15, 13, 27, 27, 25, 11, 10, 7, 27, 14, 10, 28, 26, 24, 18, 12, 12, 16, 14, 10, 20, 18, 17, 15, 15, 15
 |12, 9, 6, 29, 12, 6, 25, 16, 10, 29, 27, 26, 9, 6, 3, 27, 18, 10, 26, 20, 17, 26, 24, 21, 13, 13, 10, 9, 7, 6, 21, 17, 12, 18, 15, 15, 13, 8, 5, 21, 17, 7, 10, 9, 4, 20, 18, 10, 18, 16, 14, 29, 28, 28, 27, 26, 22, 25, 25, 18, 20, 10, 9, 19, 14, 10, 24, 20, 13, 5, 5, 5, 22, 18, 17, 8, 8, 5, 23, 17, 16, 22, 13, 8, 18, 16, 16, 26, 19, 6, 30, 26, 26, 15, 15, 12, 19, 18, 16, 19, 14, 10, 24, 21, 20, 25, 19, 5, 10, 8, 7, 25, 20, 18, 23, 17, 15, 30, 29, 29, 27, 18, 15, 28, 27, 26, 8, 8, 8, 20, 18, 13, 15, 13, 12, 22, 14, 3, 12, 10, 7, 20, 14, 6, 10, 9, 9, 23, 22, 17, 15, 14, 12, 17, 12, 10, 15, 14, 13, 24, 16, 14, 17, 17, 16, 29, 16, 8, 27, 23, 23, 22, 20, 20, 20, 13, 3, 6, 6, 5, 15, 14, 12, 19, 18, 14, 29, 22, 17, 17, 13, 6, 20, 17, 17, 15, 13, 5, 14, 11, 10, 18, 13, 10, 24, 24, 24, 20, 13, 8, 21, 19, 19, 25, 24, 23, 24, 17, 14, 15, 15, 14, 14, 8, 2, 24, 11, 9, 26, 18, 15, 14, 8, 6, 8, 7, 7, 13, 11, 8, 23, 22, 12, 19, 18, 17, 15, 12, 10, 23, 22, 22, 9, 6, 4, 16, 8, 6, 28, 27, 27, 27, 20, 18, 23, 16, 2, 18, 16, 13, 21, 15, 12, 6, 3, 3, 12, 7, 3, 30, 16, 11, 23, 17, 12, 7, 6, 4, 24, 20, 18, 25, 24, 21, 22, 14, 10, 14, 14, 11
 |6, 6, 4, 25, 24, 24, 16, 14, 12, 12, 12, 12, 13, 11, 10, 11, 9, 9, 12, 11, 11, 22, 20, 20, 15, 13, 9, 21, 12, 5, 20, 11, 9, 20, 16, 13, 3, 3, 3, 11, 10, 8, 30, 27, 27, 23, 19, 15, 3, 3, 3, 20, 18, 16, 11, 8, 7, 4, 4, 4, 23, 22, 22, 13, 9, 6, 9, 9, 8, 22, 18, 15, 22, 14, 3, 18, 14, 10, 16, 15, 13, 19, 13, 4, 15, 11, 2, 19, 14, 13, 21, 14, 11, 9, 9, 7, 24, 20, 8, 15, 11, 8, 24, 17, 6, 24, 15, 11, 23, 18, 17, 5, 5, 5, 30, 24, 24, 20, 14, 9, 9, 7, 6, 18, 15, 11, 25, 15, 8, 21, 18, 7, 22, 21, 15, 15, 13, 11, 13, 13, 7, 29, 18, 5, 18, 11, 8, 21, 16, 13, 5, 4, 4, 22, 20, 11, 21, 15, 7, 24, 22, 19, 22, 17, 13, 26, 17, 12, 6, 3, 2, 6, 5, 5, 10, 8, 7, 27, 26, 25, 13, 11, 8, 23, 14, 10, 28, 27, 25, 24, 23, 23, 21, 20, 19, 20, 12, 4, 3, 1, 1, 17, 17, 13, 27, 26, 24, 19, 18, 15, 24, 23, 23, 22, 15, 14, 17, 10, 6, 17, 16, 15, 16, 7, 5, 8, 6, 4, 29, 26, 24, 30, 29, 27, 26, 19, 11, 26, 21, 20, 17, 15, 13, 24, 20, 12, 17, 16, 12, 11, 9, 7, 16, 14, 14, 17, 15, 15, 3, 3, 1, 15, 15, 14, 29, 24, 20, 26, 23, 18, 20, 17, 10, 22, 18, 18, 27, 25, 17, 12, 12, 12, 28, 28, 26, 16, 11, 6, 18, 13, 6, 22, 22, 22, 23, 23, 19, 28, 28, 28
 |20, 18, 18, 14, 14, 12, 19, 18, 17, 25, 23, 21, 18, 13, 8, 28, 18, 5, 25, 21, 19, 22, 18, 14, 24, 20, 17, 29, 28, 27, 15, 12, 6, 28, 28, 26, 24, 16, 7, 27, 21, 14, 23, 19, 13, 22, 21, 19, 15, 14, 14, 26, 22, 15, 14, 12, 9, 12, 11, 3, 27, 25, 21, 21, 19, 17, 7, 6, 4, 8, 7, 7, 22, 16, 9, 26, 21, 19, 25, 25, 21, 23, 18, 14, 18, 18, 18, 24, 21, 19, 23, 23, 21, 21, 18, 15, 27, 17, 8, 24, 21, 21, 8, 6, 6, 13, 11, 7, 23, 19, 13, 12, 6, 4, 18, 12, 4, 18, 18, 18, 21, 17, 13, 19, 17, 16, 14, 11, 8, 27, 25, 23, 25, 19, 4, 26, 19, 9, 16, 15, 14, 9, 9, 8, 16, 13, 12, 26, 25, 24, 20, 19, 18, 23, 13, 5, 10, 10, 10, 13, 11, 10, 7, 5, 3, 25, 23, 23, 27, 24, 23, 19, 16, 15, 5, 3, 3, 18, 14, 8, 22, 22, 18, 8, 6, 1, 17, 13, 13, 16, 14, 14, 18, 17, 17, 19, 18, 18, 11, 9, 3, 9, 8, 7, 17, 8, 5, 15, 15, 6, 30, 28, 28, 21, 17, 12, 12, 8, 5, 24, 23, 19, 22, 16, 11, 19, 17, 10, 16, 12, 7, 22, 13, 10, 23, 23, 23, 16, 9, 3, 12, 8, 7, 13, 6, 4, 9, 6, 6, 24, 16, 7, 17, 14, 2, 21, 16, 15, 15, 15, 6, 16, 15, 13, 13, 9, 6, 15, 12, 6, 30, 28, 27, 17, 16, 4, 19, 11, 10, 27, 26, 24, 28, 21, 13, 11, 9, 9, 30, 22, 18, 28, 24, 23, 12, 12, 10, 14, 13, 12
 |22, 20, 19, 10, 9, 7, 19, 18, 14, 22, 19, 15, 9, 8, 7, 9, 6, 6, 25, 23, 23, 27, 24, 23, 14, 13, 9, 16, 13, 8, 21, 17, 15, 20, 16, 12, 26, 26, 26, 18, 15, 15, 14, 10, 5, 6, 4, 2, 26, 21, 14, 22, 11, 2, 27, 23, 21, 23, 20, 17, 25, 25, 25, 20, 11, 8, 27, 27, 27, 15, 15, 15, 14, 10, 8, 28, 28, 28, 22, 16, 7, 19, 11, 8, 23, 20, 14, 18, 12, 12, 28, 20, 19, 14, 8, 8, 11, 10, 10, 23, 22, 20, 19, 17, 13, 23, 18, 15, 24, 18, 13, 26, 18, 12, 13, 7, 3, 28, 25, 19, 19, 17, 16, 19, 18, 18, 19, 10, 10, 15, 11, 11, 19, 14, 9, 21, 21, 19, 27, 26, 25, 4, 4, 3, 11, 8, 7, 22, 14, 10, 15, 11, 6, 5, 3, 3, 16, 12, 8, 23, 17, 4, 25, 19, 8, 5, 3, 3, 27, 24, 24, 24, 14, 8, 4, 3, 2, 16, 9, 9, 22, 22, 19, 11, 6, 4, 16, 10, 7, 15, 14, 11, 20, 17, 13, 7, 7, 7, 15, 9, 4, 29, 20, 17, 8, 6, 6, 5, 3, 2, 19, 18, 18, 20, 14, 10, 29, 25, 24, 23, 18, 16, 8, 7, 6, 13, 7, 3, 25, 17, 10, 20, 19, 19, 3, 3, 3, 27, 26, 21, 18, 16, 15, 25, 20, 18, 27, 16, 13, 14, 6, 4, 25, 24, 24, 29, 29, 29, 29, 27, 26, 19, 13, 1, 7, 5, 4, 18, 14, 6, 19, 19, 19, 8, 5, 5, 23, 10, 4, 20, 16, 10, 16, 15, 7, 27, 26, 26, 21, 12, 7, 20, 20, 20, 12, 11, 11, 8, 5, 2
 |16, 14, 9, 24, 17, 6, 13, 6, 6, 19, 13, 12, 28, 19, 18, 29, 17, 9, 18, 16, 6, 24, 15, 10, 22, 18, 15, 24, 23, 18, 28, 14, 10, 28, 21, 12, 14, 11, 6, 24, 24, 22, 25, 21, 12, 19, 10, 5, 29, 23, 19, 18, 15, 12, 9, 8, 8, 23, 20, 16, 14, 11, 8, 9, 7, 7, 20, 20, 16, 28, 27, 27, 25, 11, 3, 25, 24, 22, 19, 10, 5, 3, 2, 2, 25, 17, 15, 26, 18, 13, 4, 3, 3, 23, 20, 12, 24, 22, 17, 22, 21, 10, 6, 6, 6, 26, 19, 10, 23, 21, 20, 19, 13, 10, 28, 26, 24, 27, 27, 25, 10, 8, 7, 10, 5, 4, 5, 4, 3, 26, 21, 12, 27, 24, 20, 22, 16, 12, 18, 17, 13, 19, 16, 8, 28, 27, 25, 28, 26, 26, 15, 14, 9, 22, 17, 16, 23, 20, 19, 17, 13, 11, 14, 12, 7, 15, 14, 7, 15, 13, 9, 19, 13, 11, 10, 10, 10, 22, 20, 17, 21, 19, 15, 25, 19, 16, 24, 23, 22, 14, 8, 5, 17, 13, 7, 19, 12, 10, 28, 22, 20, 19, 14, 6, 17, 15, 15, 21, 19, 16, 18, 14, 13, 23, 19, 12, 13, 13, 13, 9, 9, 7, 30, 26, 23, 11, 8, 4, 19, 19, 18, 14, 12, 7, 14, 12, 9, 10, 8, 7, 19, 18, 11, 24, 21, 11, 12, 10, 5, 23, 23, 23, 6, 3, 3, 4, 3, 2, 18, 16, 15, 28, 22, 18, 16, 11, 8, 9, 5, 3, 10, 8, 4, 16, 10, 8, 18, 13, 8, 25, 18, 13, 24, 12, 9, 21, 17, 15, 13, 13, 12, 10, 4, 3, 27, 24, 22, 19, 19, 19|];